% File represents an instance of a Composite Structure problem to be solved by a CP framework
% Created on 2025-03-26 10:42:18.953
T = 50;
n = 36;
m = 60;
edges = [(1, 2),
(7, 8),
(13, 14),
(19, 20),
(25, 26),
(31, 32),
(2, 3),
(8, 9),
(14, 15),
(20, 21),
(26, 27),
(32, 33),
(3, 4),
(9, 10),
(15, 16),
(21, 22),
(27, 28),
(33, 34),
(4, 5),
(10, 11),
(16, 17),
(22, 23),
(28, 29),
(34, 35),
(5, 6),
(11, 12),
(17, 18),
(23, 24),
(30, 29),
(36, 35),
(7, 1),
(7, 13),
(13, 19),
(19, 25),
(25, 31),
(8, 2),
(8, 14),
(14, 20),
(20, 26),
(26, 32),
(9, 3),
(9, 15),
(15, 21),
(21, 27),
(27, 33),
(10, 4),
(10, 16),
(16, 22),
(22, 28),
(28, 34),
(11, 5),
(11, 17),
(17, 23),
(23, 29),
(29, 35),
(12, 6),
(12, 18),
(18, 24),
(30, 24),
(30, 36)];
counts = [|4, 18, 4, 18,
|4, 16, 4, 14,
|4, 14, 4, 10,
|4, 12, 4, 6,
|4, 8, 4, 4,
|4, 8, 4, 2,
|6, 18, 6, 20,
|4, 18, 4, 18,
|4, 16, 4, 14,
|4, 14, 4, 10,
|4, 8, 4, 10,
|4, 8, 4, 4,
|6, 14, 6, 18,
|4, 12, 4, 18,
|4, 10, 4, 14,
|4, 10, 4, 8,
|4, 8, 4, 4,
|2, 6, 2, 4,
|6, 10, 6, 16,
|4, 10, 4, 16,
|4, 10, 4, 10,
|4, 10, 4, 4,
|2, 8, 2, 4,
|2, 6, 2, 2,
|6, 10, 6, 12,
|4, 10, 4, 10,
|4, 8, 4, 6,
|4, 6, 4, 4,
|2, 6, 2, 4,
|4, 6, 4, 4,
|6, 8, 6, 8,
|4, 8, 4, 6,
|4, 4, 4, 6,
|4, 4, 4, 2,
|2, 4, 2, 2,
|4, 4, 4, 4|];
